c nIsolatedPIs 0
c maxPI 20
p cnf 693 2020
c gate 21 9 17 0
9 -21 0
17 -21 0
-9 -17 21 0
c gate 22 8 18 0
8 -22 0
18 -22 0
-8 -18 22 0
c gate 23 21 22 0
21 -23 0
22 -23 0
-21 -22 23 0
c gate 24 7 19 0
7 -24 0
19 -24 0
-7 -19 24 0
c gate 25 -21 -22 0
-21 -25 0
-22 -25 0
21 22 25 0
c gate 26 -23 -25 0
-23 -26 0
-25 -26 0
23 25 26 0
c gate 27 24 26 0
24 -27 0
26 -27 0
-24 -26 27 0
c gate 28 -23 -27 0
-23 -28 0
-27 -28 0
23 27 28 0
c gate 29 8 19 0
8 -29 0
19 -29 0
-8 -19 29 0
c gate 30 9 18 0
9 -30 0
18 -30 0
-9 -18 30 0
c gate 31 10 17 0
10 -31 0
17 -31 0
-10 -17 31 0
c gate 32 -30 -31 0
-30 -32 0
-31 -32 0
30 31 32 0
c gate 33 30 31 0
30 -33 0
31 -33 0
-30 -31 33 0
c gate 34 -32 -33 0
-32 -34 0
-33 -34 0
32 33 34 0
c gate 35 29 34 0
29 -35 0
34 -35 0
-29 -34 35 0
c gate 36 -29 -34 0
-29 -36 0
-34 -36 0
29 34 36 0
c gate 37 -35 -36 0
-35 -37 0
-36 -37 0
35 36 37 0
c gate 38 -28 37 0
-28 -38 0
37 -38 0
28 -37 38 0
c gate 39 -33 -35 0
-33 -39 0
-35 -39 0
33 35 39 0
c gate 40 10 18 0
10 -40 0
18 -40 0
-10 -18 40 0
c gate 41 9 19 0
9 -41 0
19 -41 0
-9 -19 41 0
c gate 42 40 -41 0
40 -42 0
-41 -42 0
-40 41 42 0
c gate 43 -40 41 0
-40 -43 0
41 -43 0
40 -41 43 0
c gate 44 -42 -43 0
-42 -44 0
-43 -44 0
42 43 44 0
c gate 45 -39 -44 0
-39 -45 0
-44 -45 0
39 44 45 0
c gate 46 39 44 0
39 -46 0
44 -46 0
-39 -44 46 0
c gate 47 -45 -46 0
-45 -47 0
-46 -47 0
45 46 47 0
c gate 48 38 47 0
38 -48 0
47 -48 0
-38 -47 48 0
c gate 49 10 19 0
10 -49 0
19 -49 0
-10 -19 49 0
c gate 50 -30 -45 0
-30 -50 0
-45 -50 0
30 45 50 0
c gate 51 49 -50 0
49 -51 0
-50 -51 0
-49 50 51 0
c gate 52 -45 -49 0
-45 -52 0
-49 -52 0
45 49 52 0
c gate 53 -51 -52 0
-51 -53 0
-52 -53 0
51 52 53 0
c gate 54 48 53 0
48 -54 0
53 -54 0
-48 -53 54 0
c gate 55 9 20 0
9 -55 0
20 -55 0
-9 -20 55 0
c gate 56 -48 -53 0
-48 -56 0
-53 -56 0
48 53 56 0
c gate 57 -54 -56 0
-54 -57 0
-56 -57 0
54 56 57 0
c gate 58 55 57 0
55 -58 0
57 -58 0
-55 -57 58 0
c gate 59 -54 -58 0
-54 -59 0
-58 -59 0
54 58 59 0
c gate 60 20 51 0
20 -60 0
51 -60 0
-20 -51 60 0
c gate 61 10 20 0
10 -61 0
20 -61 0
-10 -20 61 0
c gate 62 -51 -61 0
-51 -62 0
-61 -62 0
51 61 62 0
c gate 63 -60 -62 0
-60 -63 0
-62 -63 0
60 62 63 0
c gate 64 59 -63 0
59 -64 0
-63 -64 0
-59 63 64 0
c gate 65 10 16 0
10 -65 0
16 -65 0
-10 -16 65 0
c gate 66 8 17 0
8 -66 0
17 -66 0
-8 -17 66 0
c gate 67 7 18 0
7 -67 0
18 -67 0
-7 -18 67 0
c gate 68 66 67 0
66 -68 0
67 -68 0
-66 -67 68 0
c gate 69 6 19 0
6 -69 0
19 -69 0
-6 -19 69 0
c gate 70 -66 -67 0
-66 -70 0
-67 -70 0
66 67 70 0
c gate 71 -68 -70 0
-68 -71 0
-70 -71 0
68 70 71 0
c gate 72 69 71 0
69 -72 0
71 -72 0
-69 -71 72 0
c gate 73 -68 -72 0
-68 -73 0
-72 -73 0
68 72 73 0
c gate 74 -24 -26 0
-24 -74 0
-26 -74 0
24 26 74 0
c gate 75 -27 -74 0
-27 -75 0
-74 -75 0
27 74 75 0
c gate 76 9 16 0
9 -76 0
16 -76 0
-9 -16 76 0
c gate 77 10 15 0
10 -77 0
15 -77 0
-10 -15 77 0
c gate 78 76 77 0
76 -78 0
77 -78 0
-76 -77 78 0
c gate 79 75 78 0
75 -79 0
78 -79 0
-75 -78 79 0
c gate 80 -75 -78 0
-75 -80 0
-78 -80 0
75 78 80 0
c gate 81 -79 -80 0
-79 -81 0
-80 -81 0
79 80 81 0
c gate 82 73 -81 0
73 -82 0
-81 -82 0
-73 81 82 0
c gate 83 -73 81 0
-73 -83 0
81 -83 0
73 -81 83 0
c gate 84 -82 -83 0
-82 -84 0
-83 -84 0
82 83 84 0
c gate 85 65 84 0
65 -85 0
84 -85 0
-65 -84 85 0
c gate 86 28 -37 0
28 -86 0
-37 -86 0
-28 37 86 0
c gate 87 -38 -86 0
-38 -87 0
-86 -87 0
38 86 87 0
c gate 88 85 87 0
85 -88 0
87 -88 0
-85 -87 88 0
c gate 89 -79 -83 0
-79 -89 0
-83 -89 0
79 83 89 0
c gate 90 -85 -87 0
-85 -90 0
-87 -90 0
85 87 90 0
c gate 91 -88 -90 0
-88 -91 0
-90 -91 0
88 90 91 0
c gate 92 -89 91 0
-89 -92 0
91 -92 0
89 -91 92 0
c gate 93 -88 -92 0
-88 -93 0
-92 -93 0
88 92 93 0
c gate 94 -38 -47 0
-38 -94 0
-47 -94 0
38 47 94 0
c gate 95 -48 -94 0
-48 -95 0
-94 -95 0
48 94 95 0
c gate 96 -93 95 0
-93 -96 0
95 -96 0
93 -95 96 0
c gate 97 8 20 0
8 -97 0
20 -97 0
-8 -20 97 0
c gate 98 93 -95 0
93 -98 0
-95 -98 0
-93 95 98 0
c gate 99 -96 -98 0
-96 -99 0
-98 -99 0
96 98 99 0
c gate 100 97 99 0
97 -100 0
99 -100 0
-97 -99 100 0
c gate 101 -96 -100 0
-96 -101 0
-100 -101 0
96 100 101 0
c gate 102 -55 -57 0
-55 -102 0
-57 -102 0
55 57 102 0
c gate 103 -58 -102 0
-58 -103 0
-102 -103 0
58 102 103 0
c gate 104 -101 103 0
-101 -104 0
103 -104 0
101 -103 104 0
c gate 105 51 104 0
51 -105 0
104 -105 0
-51 -104 105 0
c gate 106 101 -103 0
101 -106 0
-103 -106 0
-101 103 106 0
c gate 107 -76 -77 0
-76 -107 0
-77 -107 0
76 77 107 0
c gate 108 -78 -107 0
-78 -108 0
-107 -108 0
78 107 108 0
c gate 109 7 17 0
7 -109 0
17 -109 0
-7 -17 109 0
c gate 110 6 18 0
6 -110 0
18 -110 0
-6 -18 110 0
c gate 111 109 110 0
109 -111 0
110 -111 0
-109 -110 111 0
c gate 112 5 19 0
5 -112 0
19 -112 0
-5 -19 112 0
c gate 113 -109 -110 0
-109 -113 0
-110 -113 0
109 110 113 0
c gate 114 -111 -113 0
-111 -114 0
-113 -114 0
111 113 114 0
c gate 115 112 114 0
112 -115 0
114 -115 0
-112 -114 115 0
c gate 116 -111 -115 0
-111 -116 0
-115 -116 0
111 115 116 0
c gate 117 -69 -71 0
-69 -117 0
-71 -117 0
69 71 117 0
c gate 118 -72 -117 0
-72 -118 0
-117 -118 0
72 117 118 0
c gate 119 9 15 0
9 -119 0
15 -119 0
-9 -15 119 0
c gate 120 10 14 0
10 -120 0
14 -120 0
-10 -14 120 0
c gate 121 119 120 0
119 -121 0
120 -121 0
-119 -120 121 0
c gate 122 8 16 0
8 -122 0
16 -122 0
-8 -16 122 0
c gate 123 -119 -120 0
-119 -123 0
-120 -123 0
119 120 123 0
c gate 124 -121 -123 0
-121 -124 0
-123 -124 0
121 123 124 0
c gate 125 122 124 0
122 -125 0
124 -125 0
-122 -124 125 0
c gate 126 -121 -125 0
-121 -126 0
-125 -126 0
121 125 126 0
c gate 127 118 -126 0
118 -127 0
-126 -127 0
-118 126 127 0
c gate 128 -118 126 0
-118 -128 0
126 -128 0
118 -126 128 0
c gate 129 -127 -128 0
-127 -129 0
-128 -129 0
127 128 129 0
c gate 130 116 -129 0
116 -130 0
-129 -130 0
-116 129 130 0
c gate 131 -116 129 0
-116 -131 0
129 -131 0
116 -129 131 0
c gate 132 -130 -131 0
-130 -132 0
-131 -132 0
130 131 132 0
c gate 133 108 132 0
108 -133 0
132 -133 0
-108 -132 133 0
c gate 134 -65 -84 0
-65 -134 0
-84 -134 0
65 84 134 0
c gate 135 -85 -134 0
-85 -135 0
-134 -135 0
85 134 135 0
c gate 136 133 135 0
133 -136 0
135 -136 0
-133 -135 136 0
c gate 137 -127 -131 0
-127 -137 0
-131 -137 0
127 131 137 0
c gate 138 -133 -135 0
-133 -138 0
-135 -138 0
133 135 138 0
c gate 139 -136 -138 0
-136 -139 0
-138 -139 0
136 138 139 0
c gate 140 -137 139 0
-137 -140 0
139 -140 0
137 -139 140 0
c gate 141 -136 -140 0
-136 -141 0
-140 -141 0
136 140 141 0
c gate 142 89 -91 0
89 -142 0
-91 -142 0
-89 91 142 0
c gate 143 -92 -142 0
-92 -143 0
-142 -143 0
92 142 143 0
c gate 144 -141 143 0
-141 -144 0
143 -144 0
141 -143 144 0
c gate 145 7 20 0
7 -145 0
20 -145 0
-7 -20 145 0
c gate 146 141 -143 0
141 -146 0
-143 -146 0
-141 143 146 0
c gate 147 -144 -146 0
-144 -147 0
-146 -147 0
144 146 147 0
c gate 148 145 147 0
145 -148 0
147 -148 0
-145 -147 148 0
c gate 149 -144 -148 0
-144 -149 0
-148 -149 0
144 148 149 0
c gate 150 -97 -99 0
-97 -150 0
-99 -150 0
97 99 150 0
c gate 151 -100 -150 0
-100 -151 0
-150 -151 0
100 150 151 0
c gate 152 -149 151 0
-149 -152 0
151 -152 0
149 -151 152 0
c gate 153 60 152 0
60 -153 0
152 -153 0
-60 -152 153 0
c gate 154 149 -151 0
149 -154 0
-151 -154 0
-149 151 154 0
c gate 155 7 11 0
7 -155 0
11 -155 0
-7 -11 155 0
c gate 156 6 12 0
6 -156 0
12 -156 0
-6 -12 156 0
c gate 157 155 156 0
155 -157 0
156 -157 0
-155 -156 157 0
c gate 158 -155 -156 0
-155 -158 0
-156 -158 0
155 156 158 0
c gate 159 -157 -158 0
-157 -159 0
-158 -159 0
157 158 159 0
c gate 160 5 13 0
5 -160 0
13 -160 0
-5 -13 160 0
c gate 161 159 160 0
159 -161 0
160 -161 0
-159 -160 161 0
c gate 162 -157 -161 0
-157 -162 0
-161 -162 0
157 161 162 0
c gate 163 6 13 0
6 -163 0
13 -163 0
-6 -13 163 0
c gate 164 8 11 0
8 -164 0
11 -164 0
-8 -11 164 0
c gate 165 7 12 0
7 -165 0
12 -165 0
-7 -12 165 0
c gate 166 -164 -165 0
-164 -166 0
-165 -166 0
164 165 166 0
c gate 167 164 165 0
164 -167 0
165 -167 0
-164 -165 167 0
c gate 168 -166 -167 0
-166 -168 0
-167 -168 0
166 167 168 0
c gate 169 163 168 0
163 -169 0
168 -169 0
-163 -168 169 0
c gate 170 -163 -168 0
-163 -170 0
-168 -170 0
163 168 170 0
c gate 171 -169 -170 0
-169 -171 0
-170 -171 0
169 170 171 0
c gate 172 -162 171 0
-162 -172 0
171 -172 0
162 -171 172 0
c gate 173 3 16 0
3 -173 0
16 -173 0
-3 -16 173 0
c gate 174 5 14 0
5 -174 0
14 -174 0
-5 -14 174 0
c gate 175 4 15 0
4 -175 0
15 -175 0
-4 -15 175 0
c gate 176 -174 -175 0
-174 -176 0
-175 -176 0
174 175 176 0
c gate 177 174 175 0
174 -177 0
175 -177 0
-174 -175 177 0
c gate 178 -176 -177 0
-176 -178 0
-177 -178 0
176 177 178 0
c gate 179 -173 -178 0
-173 -179 0
-178 -179 0
173 178 179 0
c gate 180 173 178 0
173 -180 0
178 -180 0
-173 -178 180 0
c gate 181 -179 -180 0
-179 -181 0
-180 -181 0
179 180 181 0
c gate 182 162 -171 0
162 -182 0
-171 -182 0
-162 171 182 0
c gate 183 -172 -182 0
-172 -183 0
-182 -183 0
172 182 183 0
c gate 184 181 183 0
181 -184 0
183 -184 0
-181 -183 184 0
c gate 185 -172 -184 0
-172 -185 0
-184 -185 0
172 184 185 0
c gate 186 4 16 0
4 -186 0
16 -186 0
-4 -16 186 0
c gate 187 6 14 0
6 -187 0
14 -187 0
-6 -14 187 0
c gate 188 5 15 0
5 -188 0
15 -188 0
-5 -15 188 0
c gate 189 -187 -188 0
-187 -189 0
-188 -189 0
187 188 189 0
c gate 190 187 188 0
187 -190 0
188 -190 0
-187 -188 190 0
c gate 191 -189 -190 0
-189 -191 0
-190 -191 0
189 190 191 0
c gate 192 -186 -191 0
-186 -192 0
-191 -192 0
186 191 192 0
c gate 193 186 191 0
186 -193 0
191 -193 0
-186 -191 193 0
c gate 194 -192 -193 0
-192 -194 0
-193 -194 0
192 193 194 0
c gate 195 -167 -169 0
-167 -195 0
-169 -195 0
167 169 195 0
c gate 196 7 13 0
7 -196 0
13 -196 0
-7 -13 196 0
c gate 197 9 11 0
9 -197 0
11 -197 0
-9 -11 197 0
c gate 198 8 12 0
8 -198 0
12 -198 0
-8 -12 198 0
c gate 199 -197 -198 0
-197 -199 0
-198 -199 0
197 198 199 0
c gate 200 197 198 0
197 -200 0
198 -200 0
-197 -198 200 0
c gate 201 -199 -200 0
-199 -201 0
-200 -201 0
199 200 201 0
c gate 202 196 201 0
196 -202 0
201 -202 0
-196 -201 202 0
c gate 203 -196 -201 0
-196 -203 0
-201 -203 0
196 201 203 0
c gate 204 -202 -203 0
-202 -204 0
-203 -204 0
202 203 204 0
c gate 205 -195 204 0
-195 -205 0
204 -205 0
195 -204 205 0
c gate 206 195 -204 0
195 -206 0
-204 -206 0
-195 204 206 0
c gate 207 -205 -206 0
-205 -207 0
-206 -207 0
205 206 207 0
c gate 208 194 207 0
194 -208 0
207 -208 0
-194 -207 208 0
c gate 209 -194 -207 0
-194 -209 0
-207 -209 0
194 207 209 0
c gate 210 -208 -209 0
-208 -210 0
-209 -210 0
208 209 210 0
c gate 211 -185 210 0
-185 -211 0
210 -211 0
185 -210 211 0
c gate 212 2 17 0
2 -212 0
17 -212 0
-2 -17 212 0
c gate 213 1 18 0
1 -213 0
18 -213 0
-1 -18 213 0
c gate 214 212 213 0
212 -214 0
213 -214 0
-212 -213 214 0
c gate 215 1 19 0
1 -215 0
19 -215 0
-1 -19 215 0
c gate 216 3 17 0
3 -216 0
17 -216 0
-3 -17 216 0
c gate 217 2 18 0
2 -217 0
18 -217 0
-2 -18 217 0
c gate 218 -216 -217 0
-216 -218 0
-217 -218 0
216 217 218 0
c gate 219 216 217 0
216 -219 0
217 -219 0
-216 -217 219 0
c gate 220 -218 -219 0
-218 -220 0
-219 -220 0
218 219 220 0
c gate 221 215 220 0
215 -221 0
220 -221 0
-215 -220 221 0
c gate 222 -215 -220 0
-215 -222 0
-220 -222 0
215 220 222 0
c gate 223 -221 -222 0
-221 -223 0
-222 -223 0
221 222 223 0
c gate 224 -177 -180 0
-177 -224 0
-180 -224 0
177 180 224 0
c gate 225 223 -224 0
223 -225 0
-224 -225 0
-223 224 225 0
c gate 226 -223 224 0
-223 -226 0
224 -226 0
223 -224 226 0
c gate 227 -225 -226 0
-225 -227 0
-226 -227 0
225 226 227 0
c gate 228 -214 -227 0
-214 -228 0
-227 -228 0
214 227 228 0
c gate 229 214 227 0
214 -229 0
227 -229 0
-214 -227 229 0
c gate 230 -228 -229 0
-228 -230 0
-229 -230 0
228 229 230 0
c gate 231 185 -210 0
185 -231 0
-210 -231 0
-185 210 231 0
c gate 232 -211 -231 0
-211 -232 0
-231 -232 0
211 231 232 0
c gate 233 230 232 0
230 -233 0
232 -233 0
-230 -232 233 0
c gate 234 -211 -233 0
-211 -234 0
-233 -234 0
211 233 234 0
c gate 235 -219 -221 0
-219 -235 0
-221 -235 0
219 221 235 0
c gate 236 2 19 0
2 -236 0
19 -236 0
-2 -19 236 0
c gate 237 4 17 0
4 -237 0
17 -237 0
-4 -17 237 0
c gate 238 3 18 0
3 -238 0
18 -238 0
-3 -18 238 0
c gate 239 -237 -238 0
-237 -239 0
-238 -239 0
237 238 239 0
c gate 240 237 238 0
237 -240 0
238 -240 0
-237 -238 240 0
c gate 241 -239 -240 0
-239 -241 0
-240 -241 0
239 240 241 0
c gate 242 236 241 0
236 -242 0
241 -242 0
-236 -241 242 0
c gate 243 -236 -241 0
-236 -243 0
-241 -243 0
236 241 243 0
c gate 244 -242 -243 0
-242 -244 0
-243 -244 0
242 243 244 0
c gate 245 -190 -193 0
-190 -245 0
-193 -245 0
190 193 245 0
c gate 246 244 -245 0
244 -246 0
-245 -246 0
-244 245 246 0
c gate 247 -244 245 0
-244 -247 0
245 -247 0
244 -245 247 0
c gate 248 -246 -247 0
-246 -248 0
-247 -248 0
246 247 248 0
c gate 249 235 -248 0
235 -249 0
-248 -249 0
-235 248 249 0
c gate 250 -235 248 0
-235 -250 0
248 -250 0
235 -248 250 0
c gate 251 -249 -250 0
-249 -251 0
-250 -251 0
249 250 251 0
c gate 252 -205 -208 0
-205 -252 0
-208 -252 0
205 208 252 0
c gate 253 5 16 0
5 -253 0
16 -253 0
-5 -16 253 0
c gate 254 7 14 0
7 -254 0
14 -254 0
-7 -14 254 0
c gate 255 6 15 0
6 -255 0
15 -255 0
-6 -15 255 0
c gate 256 -254 -255 0
-254 -256 0
-255 -256 0
254 255 256 0
c gate 257 254 255 0
254 -257 0
255 -257 0
-254 -255 257 0
c gate 258 -256 -257 0
-256 -258 0
-257 -258 0
256 257 258 0
c gate 259 -253 -258 0
-253 -259 0
-258 -259 0
253 258 259 0
c gate 260 253 258 0
253 -260 0
258 -260 0
-253 -258 260 0
c gate 261 -259 -260 0
-259 -261 0
-260 -261 0
259 260 261 0
c gate 262 -200 -202 0
-200 -262 0
-202 -262 0
200 202 262 0
c gate 263 8 13 0
8 -263 0
13 -263 0
-8 -13 263 0
c gate 264 9 12 0
9 -264 0
12 -264 0
-9 -12 264 0
c gate 265 10 11 0
10 -265 0
11 -265 0
-10 -11 265 0
c gate 266 -264 -265 0
-264 -266 0
-265 -266 0
264 265 266 0
c gate 267 264 265 0
264 -267 0
265 -267 0
-264 -265 267 0
c gate 268 -266 -267 0
-266 -268 0
-267 -268 0
266 267 268 0
c gate 269 263 268 0
263 -269 0
268 -269 0
-263 -268 269 0
c gate 270 -263 -268 0
-263 -270 0
-268 -270 0
263 268 270 0
c gate 271 -269 -270 0
-269 -271 0
-270 -271 0
269 270 271 0
c gate 272 -262 271 0
-262 -272 0
271 -272 0
262 -271 272 0
c gate 273 262 -271 0
262 -273 0
-271 -273 0
-262 271 273 0
c gate 274 -272 -273 0
-272 -274 0
-273 -274 0
272 273 274 0
c gate 275 261 274 0
261 -275 0
274 -275 0
-261 -274 275 0
c gate 276 -261 -274 0
-261 -276 0
-274 -276 0
261 274 276 0
c gate 277 -275 -276 0
-275 -277 0
-276 -277 0
275 276 277 0
c gate 278 -252 277 0
-252 -278 0
277 -278 0
252 -277 278 0
c gate 279 252 -277 0
252 -279 0
-277 -279 0
-252 277 279 0
c gate 280 -278 -279 0
-278 -280 0
-279 -280 0
278 279 280 0
c gate 281 251 280 0
251 -281 0
280 -281 0
-251 -280 281 0
c gate 282 -251 -280 0
-251 -282 0
-280 -282 0
251 280 282 0
c gate 283 -281 -282 0
-281 -283 0
-282 -283 0
281 282 283 0
c gate 284 -234 283 0
-234 -284 0
283 -284 0
234 -283 284 0
c gate 285 -225 -229 0
-225 -285 0
-229 -285 0
225 229 285 0
c gate 286 234 -283 0
234 -286 0
-283 -286 0
-234 283 286 0
c gate 287 -284 -286 0
-284 -287 0
-286 -287 0
284 286 287 0
c gate 288 -285 287 0
-285 -288 0
287 -288 0
285 -287 288 0
c gate 289 -284 -288 0
-284 -289 0
-288 -289 0
284 288 289 0
c gate 290 -246 -250 0
-246 -290 0
-250 -290 0
246 250 290 0
c gate 291 -278 -281 0
-278 -291 0
-281 -291 0
278 281 291 0
c gate 292 -240 -242 0
-240 -292 0
-242 -292 0
240 242 292 0
c gate 293 3 19 0
3 -293 0
19 -293 0
-3 -19 293 0
c gate 294 4 18 0
4 -294 0
18 -294 0
-4 -18 294 0
c gate 295 5 17 0
5 -295 0
17 -295 0
-5 -17 295 0
c gate 296 -294 -295 0
-294 -296 0
-295 -296 0
294 295 296 0
c gate 297 294 295 0
294 -297 0
295 -297 0
-294 -295 297 0
c gate 298 -296 -297 0
-296 -298 0
-297 -298 0
296 297 298 0
c gate 299 293 298 0
293 -299 0
298 -299 0
-293 -298 299 0
c gate 300 -293 -298 0
-293 -300 0
-298 -300 0
293 298 300 0
c gate 301 -299 -300 0
-299 -301 0
-300 -301 0
299 300 301 0
c gate 302 -257 -260 0
-257 -302 0
-260 -302 0
257 260 302 0
c gate 303 301 -302 0
301 -303 0
-302 -303 0
-301 302 303 0
c gate 304 -301 302 0
-301 -304 0
302 -304 0
301 -302 304 0
c gate 305 -303 -304 0
-303 -305 0
-304 -305 0
303 304 305 0
c gate 306 292 -305 0
292 -306 0
-305 -306 0
-292 305 306 0
c gate 307 -292 305 0
-292 -307 0
305 -307 0
292 -305 307 0
c gate 308 -306 -307 0
-306 -308 0
-307 -308 0
306 307 308 0
c gate 309 -272 -275 0
-272 -309 0
-275 -309 0
272 275 309 0
c gate 310 6 16 0
6 -310 0
16 -310 0
-6 -16 310 0
c gate 311 7 15 0
7 -311 0
15 -311 0
-7 -15 311 0
c gate 312 8 14 0
8 -312 0
14 -312 0
-8 -14 312 0
c gate 313 -311 -312 0
-311 -313 0
-312 -313 0
311 312 313 0
c gate 314 311 312 0
311 -314 0
312 -314 0
-311 -312 314 0
c gate 315 -313 -314 0
-313 -315 0
-314 -315 0
313 314 315 0
c gate 316 -310 -315 0
-310 -316 0
-315 -316 0
310 315 316 0
c gate 317 310 315 0
310 -317 0
315 -317 0
-310 -315 317 0
c gate 318 -316 -317 0
-316 -318 0
-317 -318 0
316 317 318 0
c gate 319 10 12 0
10 -319 0
12 -319 0
-10 -12 319 0
c gate 320 9 13 0
9 -320 0
13 -320 0
-9 -13 320 0
c gate 321 -319 -320 0
-319 -321 0
-320 -321 0
319 320 321 0
c gate 322 319 320 0
319 -322 0
320 -322 0
-319 -320 322 0
c gate 323 -321 -322 0
-321 -323 0
-322 -323 0
321 322 323 0
c gate 324 -267 -269 0
-267 -324 0
-269 -324 0
267 269 324 0
c gate 325 323 -324 0
323 -325 0
-324 -325 0
-323 324 325 0
c gate 326 -323 324 0
-323 -326 0
324 -326 0
323 -324 326 0
c gate 327 -325 -326 0
-325 -327 0
-326 -327 0
325 326 327 0
c gate 328 318 327 0
318 -328 0
327 -328 0
-318 -327 328 0
c gate 329 -318 -327 0
-318 -329 0
-327 -329 0
318 327 329 0
c gate 330 -328 -329 0
-328 -330 0
-329 -330 0
328 329 330 0
c gate 331 -309 330 0
-309 -331 0
330 -331 0
309 -330 331 0
c gate 332 309 -330 0
309 -332 0
-330 -332 0
-309 330 332 0
c gate 333 -331 -332 0
-331 -333 0
-332 -333 0
331 332 333 0
c gate 334 308 333 0
308 -334 0
333 -334 0
-308 -333 334 0
c gate 335 -308 -333 0
-308 -335 0
-333 -335 0
308 333 335 0
c gate 336 -334 -335 0
-334 -336 0
-335 -336 0
334 335 336 0
c gate 337 -291 336 0
-291 -337 0
336 -337 0
291 -336 337 0
c gate 338 291 -336 0
291 -338 0
-336 -338 0
-291 336 338 0
c gate 339 -337 -338 0
-337 -339 0
-338 -339 0
337 338 339 0
c gate 340 -290 339 0
-290 -340 0
339 -340 0
290 -339 340 0
c gate 341 290 -339 0
290 -341 0
-339 -341 0
-290 339 341 0
c gate 342 -340 -341 0
-340 -342 0
-341 -342 0
340 341 342 0
c gate 343 -289 342 0
-289 -343 0
342 -343 0
289 -342 343 0
c gate 344 2 20 0
2 -344 0
20 -344 0
-2 -20 344 0
c gate 345 289 -342 0
289 -345 0
-342 -345 0
-289 342 345 0
c gate 346 -343 -345 0
-343 -346 0
-345 -346 0
343 345 346 0
c gate 347 344 346 0
344 -347 0
346 -347 0
-344 -346 347 0
c gate 348 -343 -347 0
-343 -348 0
-347 -348 0
343 347 348 0
c gate 349 3 20 0
3 -349 0
20 -349 0
-3 -20 349 0
c gate 350 -337 -340 0
-337 -350 0
-340 -350 0
337 340 350 0
c gate 351 -303 -307 0
-303 -351 0
-307 -351 0
303 307 351 0
c gate 352 -331 -334 0
-331 -352 0
-334 -352 0
331 334 352 0
c gate 353 -297 -299 0
-297 -353 0
-299 -353 0
297 299 353 0
c gate 354 4 19 0
4 -354 0
19 -354 0
-4 -19 354 0
c gate 355 6 17 0
6 -355 0
17 -355 0
-6 -17 355 0
c gate 356 5 18 0
5 -356 0
18 -356 0
-5 -18 356 0
c gate 357 -355 -356 0
-355 -357 0
-356 -357 0
355 356 357 0
c gate 358 355 356 0
355 -358 0
356 -358 0
-355 -356 358 0
c gate 359 -357 -358 0
-357 -359 0
-358 -359 0
357 358 359 0
c gate 360 354 359 0
354 -360 0
359 -360 0
-354 -359 360 0
c gate 361 -354 -359 0
-354 -361 0
-359 -361 0
354 359 361 0
c gate 362 -360 -361 0
-360 -362 0
-361 -362 0
360 361 362 0
c gate 363 -314 -317 0
-314 -363 0
-317 -363 0
314 317 363 0
c gate 364 362 -363 0
362 -364 0
-363 -364 0
-362 363 364 0
c gate 365 -362 363 0
-362 -365 0
363 -365 0
362 -363 365 0
c gate 366 -364 -365 0
-364 -366 0
-365 -366 0
364 365 366 0
c gate 367 353 -366 0
353 -367 0
-366 -367 0
-353 366 367 0
c gate 368 -353 366 0
-353 -368 0
366 -368 0
353 -366 368 0
c gate 369 -367 -368 0
-367 -369 0
-368 -369 0
367 368 369 0
c gate 370 -325 -328 0
-325 -370 0
-328 -370 0
325 328 370 0
c gate 371 7 16 0
7 -371 0
16 -371 0
-7 -16 371 0
c gate 372 9 14 0
9 -372 0
14 -372 0
-9 -14 372 0
c gate 373 8 15 0
8 -373 0
15 -373 0
-8 -15 373 0
c gate 374 -372 -373 0
-372 -374 0
-373 -374 0
372 373 374 0
c gate 375 372 373 0
372 -375 0
373 -375 0
-372 -373 375 0
c gate 376 -374 -375 0
-374 -376 0
-375 -376 0
374 375 376 0
c gate 377 -371 -376 0
-371 -377 0
-376 -377 0
371 376 377 0
c gate 378 371 376 0
371 -378 0
376 -378 0
-371 -376 378 0
c gate 379 -377 -378 0
-377 -379 0
-378 -379 0
377 378 379 0
c gate 380 10 13 0
10 -380 0
13 -380 0
-10 -13 380 0
c gate 381 -264 380 0
-264 -381 0
380 -381 0
264 -380 381 0
c gate 382 379 381 0
379 -382 0
381 -382 0
-379 -381 382 0
c gate 383 -379 -381 0
-379 -383 0
-381 -383 0
379 381 383 0
c gate 384 -382 -383 0
-382 -384 0
-383 -384 0
382 383 384 0
c gate 385 -370 384 0
-370 -385 0
384 -385 0
370 -384 385 0
c gate 386 370 -384 0
370 -386 0
-384 -386 0
-370 384 386 0
c gate 387 -385 -386 0
-385 -387 0
-386 -387 0
385 386 387 0
c gate 388 369 387 0
369 -388 0
387 -388 0
-369 -387 388 0
c gate 389 -369 -387 0
-369 -389 0
-387 -389 0
369 387 389 0
c gate 390 -388 -389 0
-388 -390 0
-389 -390 0
388 389 390 0
c gate 391 -352 390 0
-352 -391 0
390 -391 0
352 -390 391 0
c gate 392 352 -390 0
352 -392 0
-390 -392 0
-352 390 392 0
c gate 393 -391 -392 0
-391 -393 0
-392 -393 0
391 392 393 0
c gate 394 -351 393 0
-351 -394 0
393 -394 0
351 -393 394 0
c gate 395 351 -393 0
351 -395 0
-393 -395 0
-351 393 395 0
c gate 396 -394 -395 0
-394 -396 0
-395 -396 0
394 395 396 0
c gate 397 -350 396 0
-350 -397 0
396 -397 0
350 -396 397 0
c gate 398 350 -396 0
350 -398 0
-396 -398 0
-350 396 398 0
c gate 399 -397 -398 0
-397 -399 0
-398 -399 0
397 398 399 0
c gate 400 349 399 0
349 -400 0
399 -400 0
-349 -399 400 0
c gate 401 -349 -399 0
-349 -401 0
-399 -401 0
349 399 401 0
c gate 402 -400 -401 0
-400 -402 0
-401 -402 0
400 401 402 0
c gate 403 -348 402 0
-348 -403 0
402 -403 0
348 -402 403 0
c gate 404 6 11 0
6 -404 0
11 -404 0
-6 -11 404 0
c gate 405 5 12 0
5 -405 0
12 -405 0
-5 -12 405 0
c gate 406 404 405 0
404 -406 0
405 -406 0
-404 -405 406 0
c gate 407 4 13 0
4 -407 0
13 -407 0
-4 -13 407 0
c gate 408 -404 -405 0
-404 -408 0
-405 -408 0
404 405 408 0
c gate 409 -406 -408 0
-406 -409 0
-408 -409 0
406 408 409 0
c gate 410 407 409 0
407 -410 0
409 -410 0
-407 -409 410 0
c gate 411 -406 -410 0
-406 -411 0
-410 -411 0
406 410 411 0
c gate 412 -159 -160 0
-159 -412 0
-160 -412 0
159 160 412 0
c gate 413 -161 -412 0
-161 -413 0
-412 -413 0
161 412 413 0
c gate 414 -411 413 0
-411 -414 0
413 -414 0
411 -413 414 0
c gate 415 411 -413 0
411 -415 0
-413 -415 0
-411 413 415 0
c gate 416 -414 -415 0
-414 -416 0
-415 -416 0
414 415 416 0
c gate 417 2 16 0
2 -417 0
16 -417 0
-2 -16 417 0
c gate 418 4 14 0
4 -418 0
14 -418 0
-4 -14 418 0
c gate 419 3 15 0
3 -419 0
15 -419 0
-3 -15 419 0
c gate 420 -418 -419 0
-418 -420 0
-419 -420 0
418 419 420 0
c gate 421 418 419 0
418 -421 0
419 -421 0
-418 -419 421 0
c gate 422 -420 -421 0
-420 -422 0
-421 -422 0
420 421 422 0
c gate 423 417 422 0
417 -423 0
422 -423 0
-417 -422 423 0
c gate 424 -417 -422 0
-417 -424 0
-422 -424 0
417 422 424 0
c gate 425 -423 -424 0
-423 -425 0
-424 -425 0
423 424 425 0
c gate 426 416 425 0
416 -426 0
425 -426 0
-416 -425 426 0
c gate 427 -414 -426 0
-414 -427 0
-426 -427 0
414 426 427 0
c gate 428 -181 -183 0
-181 -428 0
-183 -428 0
181 183 428 0
c gate 429 -184 -428 0
-184 -429 0
-428 -429 0
184 428 429 0
c gate 430 -427 429 0
-427 -430 0
429 -430 0
427 -429 430 0
c gate 431 -212 -213 0
-212 -431 0
-213 -431 0
212 213 431 0
c gate 432 -214 -431 0
-214 -432 0
-431 -432 0
214 431 432 0
c gate 433 -421 -423 0
-421 -433 0
-423 -433 0
421 423 433 0
c gate 434 -432 433 0
-432 -434 0
433 -434 0
432 -433 434 0
c gate 435 432 -433 0
432 -435 0
-433 -435 0
-432 433 435 0
c gate 436 -434 -435 0
-434 -436 0
-435 -436 0
434 435 436 0
c gate 437 427 -429 0
427 -437 0
-429 -437 0
-427 429 437 0
c gate 438 -430 -437 0
-430 -438 0
-437 -438 0
430 437 438 0
c gate 439 436 438 0
436 -439 0
438 -439 0
-436 -438 439 0
c gate 440 -430 -439 0
-430 -440 0
-439 -440 0
430 439 440 0
c gate 441 -230 -232 0
-230 -441 0
-232 -441 0
230 232 441 0
c gate 442 -233 -441 0
-233 -442 0
-441 -442 0
233 441 442 0
c gate 443 -440 442 0
-440 -443 0
442 -443 0
440 -442 443 0
c gate 444 440 -442 0
440 -444 0
-442 -444 0
-440 442 444 0
c gate 445 -443 -444 0
-443 -445 0
-444 -445 0
443 444 445 0
c gate 446 435 445 0
435 -446 0
445 -446 0
-435 -445 446 0
c gate 447 -443 -446 0
-443 -447 0
-446 -447 0
443 446 447 0
c gate 448 285 -287 0
285 -448 0
-287 -448 0
-285 287 448 0
c gate 449 -288 -448 0
-288 -449 0
-448 -449 0
288 448 449 0
c gate 450 -447 449 0
-447 -450 0
449 -450 0
447 -449 450 0
c gate 451 1 20 0
1 -451 0
20 -451 0
-1 -20 451 0
c gate 452 447 -449 0
447 -452 0
-449 -452 0
-447 449 452 0
c gate 453 -450 -452 0
-450 -453 0
-452 -453 0
450 452 453 0
c gate 454 451 453 0
451 -454 0
453 -454 0
-451 -453 454 0
c gate 455 -450 -454 0
-450 -455 0
-454 -455 0
450 454 455 0
c gate 456 -344 -346 0
-344 -456 0
-346 -456 0
344 346 456 0
c gate 457 -347 -456 0
-347 -457 0
-456 -457 0
347 456 457 0
c gate 458 455 -457 0
455 -458 0
-457 -458 0
-455 457 458 0
c gate 459 -451 -453 0
-451 -459 0
-453 -459 0
451 453 459 0
c gate 460 -454 -459 0
-454 -460 0
-459 -460 0
454 459 460 0
c gate 461 5 11 0
5 -461 0
11 -461 0
-5 -11 461 0
c gate 462 4 12 0
4 -462 0
12 -462 0
-4 -12 462 0
c gate 463 461 462 0
461 -463 0
462 -463 0
-461 -462 463 0
c gate 464 -461 -462 0
-461 -464 0
-462 -464 0
461 462 464 0
c gate 465 -463 -464 0
-463 -465 0
-464 -465 0
463 464 465 0
c gate 466 3 13 0
3 -466 0
13 -466 0
-3 -13 466 0
c gate 467 465 466 0
465 -467 0
466 -467 0
-465 -466 467 0
c gate 468 -463 -467 0
-463 -468 0
-467 -468 0
463 467 468 0
c gate 469 -407 -409 0
-407 -469 0
-409 -469 0
407 409 469 0
c gate 470 -410 -469 0
-410 -470 0
-469 -470 0
410 469 470 0
c gate 471 -468 470 0
-468 -471 0
470 -471 0
468 -470 471 0
c gate 472 1 16 0
1 -472 0
16 -472 0
-1 -16 472 0
c gate 473 3 14 0
3 -473 0
14 -473 0
-3 -14 473 0
c gate 474 2 15 0
2 -474 0
15 -474 0
-2 -15 474 0
c gate 475 473 474 0
473 -475 0
474 -475 0
-473 -474 475 0
c gate 476 -473 -474 0
-473 -476 0
-474 -476 0
473 474 476 0
c gate 477 -475 -476 0
-475 -477 0
-476 -477 0
475 476 477 0
c gate 478 472 477 0
472 -478 0
477 -478 0
-472 -477 478 0
c gate 479 -472 -477 0
-472 -479 0
-477 -479 0
472 477 479 0
c gate 480 -478 -479 0
-478 -480 0
-479 -480 0
478 479 480 0
c gate 481 468 -470 0
468 -481 0
-470 -481 0
-468 470 481 0
c gate 482 -471 -481 0
-471 -482 0
-481 -482 0
471 481 482 0
c gate 483 480 482 0
480 -483 0
482 -483 0
-480 -482 483 0
c gate 484 -471 -483 0
-471 -484 0
-483 -484 0
471 483 484 0
c gate 485 -416 -425 0
-416 -485 0
-425 -485 0
416 425 485 0
c gate 486 -426 -485 0
-426 -486 0
-485 -486 0
426 485 486 0
c gate 487 -484 486 0
-484 -487 0
486 -487 0
484 -486 487 0
c gate 488 484 -486 0
484 -488 0
-486 -488 0
-484 486 488 0
c gate 489 -487 -488 0
-487 -489 0
-488 -489 0
487 488 489 0
c gate 490 1 17 0
1 -490 0
17 -490 0
-1 -17 490 0
c gate 491 -475 -478 0
-475 -491 0
-478 -491 0
475 478 491 0
c gate 492 490 -491 0
490 -492 0
-491 -492 0
-490 491 492 0
c gate 493 -490 491 0
-490 -493 0
491 -493 0
490 -491 493 0
c gate 494 -492 -493 0
-492 -494 0
-493 -494 0
492 493 494 0
c gate 495 489 494 0
489 -495 0
494 -495 0
-489 -494 495 0
c gate 496 -487 -495 0
-487 -496 0
-495 -496 0
487 495 496 0
c gate 497 -436 -438 0
-436 -497 0
-438 -497 0
436 438 497 0
c gate 498 -439 -497 0
-439 -498 0
-497 -498 0
439 497 498 0
c gate 499 -496 498 0
-496 -499 0
498 -499 0
496 -498 499 0
c gate 500 496 -498 0
496 -500 0
-498 -500 0
-496 498 500 0
c gate 501 -499 -500 0
-499 -501 0
-500 -501 0
499 500 501 0
c gate 502 492 501 0
492 -502 0
501 -502 0
-492 -501 502 0
c gate 503 -499 -502 0
-499 -503 0
-502 -503 0
499 502 503 0
c gate 504 -435 -445 0
-435 -504 0
-445 -504 0
435 445 504 0
c gate 505 -446 -504 0
-446 -505 0
-504 -505 0
446 504 505 0
c gate 506 -503 505 0
-503 -506 0
505 -506 0
503 -505 506 0
c gate 507 503 -505 0
503 -507 0
-505 -507 0
-503 505 507 0
c gate 508 -492 -501 0
-492 -508 0
-501 -508 0
492 501 508 0
c gate 509 -502 -508 0
-502 -509 0
-508 -509 0
502 508 509 0
c gate 510 -506 509 0
-506 -510 0
509 -510 0
506 -509 510 0
c gate 511 -507 510 0
-507 -511 0
510 -511 0
507 -510 511 0
c gate 512 4 11 0
4 -512 0
11 -512 0
-4 -11 512 0
c gate 513 3 12 0
3 -513 0
12 -513 0
-3 -12 513 0
c gate 514 512 513 0
512 -514 0
513 -514 0
-512 -513 514 0
c gate 515 -512 -513 0
-512 -515 0
-513 -515 0
512 513 515 0
c gate 516 -514 -515 0
-514 -516 0
-515 -516 0
514 515 516 0
c gate 517 2 13 0
2 -517 0
13 -517 0
-2 -13 517 0
c gate 518 516 517 0
516 -518 0
517 -518 0
-516 -517 518 0
c gate 519 -514 -518 0
-514 -519 0
-518 -519 0
514 518 519 0
c gate 520 -465 -466 0
-465 -520 0
-466 -520 0
465 466 520 0
c gate 521 -467 -520 0
-467 -521 0
-520 -521 0
467 520 521 0
c gate 522 -519 521 0
-519 -522 0
521 -522 0
519 -521 522 0
c gate 523 2 14 0
2 -523 0
14 -523 0
-2 -14 523 0
c gate 524 1 15 0
1 -524 0
15 -524 0
-1 -15 524 0
c gate 525 -523 -524 0
-523 -525 0
-524 -525 0
523 524 525 0
c gate 526 523 524 0
523 -526 0
524 -526 0
-523 -524 526 0
c gate 527 -525 -526 0
-525 -527 0
-526 -527 0
525 526 527 0
c gate 528 519 -521 0
519 -528 0
-521 -528 0
-519 521 528 0
c gate 529 -522 -528 0
-522 -529 0
-528 -529 0
522 528 529 0
c gate 530 527 529 0
527 -530 0
529 -530 0
-527 -529 530 0
c gate 531 -522 -530 0
-522 -531 0
-530 -531 0
522 530 531 0
c gate 532 -480 -482 0
-480 -532 0
-482 -532 0
480 482 532 0
c gate 533 -483 -532 0
-483 -533 0
-532 -533 0
483 532 533 0
c gate 534 -531 533 0
-531 -534 0
533 -534 0
531 -533 534 0
c gate 535 531 -533 0
531 -535 0
-533 -535 0
-531 533 535 0
c gate 536 -534 -535 0
-534 -536 0
-535 -536 0
534 535 536 0
c gate 537 526 536 0
526 -537 0
536 -537 0
-526 -536 537 0
c gate 538 -534 -537 0
-534 -538 0
-537 -538 0
534 537 538 0
c gate 539 -489 -494 0
-489 -539 0
-494 -539 0
489 494 539 0
c gate 540 -495 -539 0
-495 -540 0
-539 -540 0
495 539 540 0
c gate 541 -538 540 0
-538 -541 0
540 -541 0
538 -540 541 0
c gate 542 511 541 0
511 -542 0
541 -542 0
-511 -541 542 0
c gate 543 -506 -542 0
-506 -543 0
-542 -543 0
506 542 543 0
c gate 544 460 -543 0
460 -544 0
-543 -544 0
-460 543 544 0
c gate 545 -455 457 0
-455 -545 0
457 -545 0
455 -457 545 0
c gate 546 -544 -545 0
-544 -546 0
-545 -546 0
544 545 546 0
c gate 547 538 -540 0
538 -547 0
-540 -547 0
-538 540 547 0
c gate 548 -516 -517 0
-516 -548 0
-517 -548 0
516 517 548 0
c gate 549 -518 -548 0
-518 -549 0
-548 -549 0
518 548 549 0
c gate 550 3 11 0
3 -550 0
11 -550 0
-3 -11 550 0
c gate 551 2 12 0
2 -551 0
12 -551 0
-2 -12 551 0
c gate 552 550 551 0
550 -552 0
551 -552 0
-550 -551 552 0
c gate 553 -550 -551 0
-550 -553 0
-551 -553 0
550 551 553 0
c gate 554 1 13 0
1 -554 0
13 -554 0
-1 -13 554 0
c gate 555 -553 554 0
-553 -555 0
554 -555 0
553 -554 555 0
c gate 556 -552 -555 0
-552 -556 0
-555 -556 0
552 555 556 0
c gate 557 549 -556 0
549 -557 0
-556 -557 0
-549 556 557 0
c gate 558 1 14 0
1 -558 0
14 -558 0
-1 -14 558 0
c gate 559 -549 556 0
-549 -559 0
556 -559 0
549 -556 559 0
c gate 560 -557 -559 0
-557 -560 0
-559 -560 0
557 559 560 0
c gate 561 558 560 0
558 -561 0
560 -561 0
-558 -560 561 0
c gate 562 -557 -561 0
-557 -562 0
-561 -562 0
557 561 562 0
c gate 563 -527 -529 0
-527 -563 0
-529 -563 0
527 529 563 0
c gate 564 -530 -563 0
-530 -564 0
-563 -564 0
530 563 564 0
c gate 565 -562 564 0
-562 -565 0
564 -565 0
562 -564 565 0
c gate 566 562 -564 0
562 -566 0
-564 -566 0
-562 564 566 0
c gate 567 -558 -560 0
-558 -567 0
-560 -567 0
558 560 567 0
c gate 568 -3 -13 0
-3 -568 0
-13 -568 0
3 13 568 0
c gate 569 -466 -568 0
-466 -569 0
-568 -569 0
466 568 569 0
c gate 570 1 11 0
1 -570 0
11 -570 0
-1 -11 570 0
c gate 571 551 570 0
551 -571 0
570 -571 0
-551 -570 571 0
c gate 572 -569 571 0
-569 -572 0
571 -572 0
569 -571 572 0
c gate 573 -561 572 0
-561 -573 0
572 -573 0
561 -572 573 0
c gate 574 -567 573 0
-567 -574 0
573 -574 0
567 -573 574 0
c gate 575 -565 574 0
-565 -575 0
574 -575 0
565 -574 575 0
c gate 576 -566 575 0
-566 -576 0
575 -576 0
566 -575 576 0
c gate 577 -565 -576 0
-565 -577 0
-576 -577 0
565 576 577 0
c gate 578 -526 -536 0
-526 -578 0
-536 -578 0
526 536 578 0
c gate 579 -537 -578 0
-537 -579 0
-578 -579 0
537 578 579 0
c gate 580 -577 579 0
-577 -580 0
579 -580 0
577 -579 580 0
c gate 581 -541 580 0
-541 -581 0
580 -581 0
541 -580 581 0
c gate 582 -547 581 0
-547 -582 0
581 -582 0
547 -581 582 0
c gate 583 511 582 0
511 -583 0
582 -583 0
-511 -582 583 0
c gate 584 460 583 0
460 -584 0
583 -584 0
-460 -583 584 0
c gate 585 -403 584 0
-403 -585 0
584 -585 0
403 -584 585 0
c gate 586 546 -585 0
546 -586 0
-585 -586 0
-546 585 586 0
c gate 587 -458 -586 0
-458 -587 0
-586 -587 0
458 586 587 0
c gate 588 -403 -587 0
-403 -588 0
-587 -588 0
403 587 588 0
c gate 589 60 -588 0
60 -589 0
-588 -589 0
-60 588 589 0
c gate 590 -59 63 0
-59 -590 0
63 -590 0
59 -63 590 0
c gate 591 -104 -590 0
-104 -591 0
-590 -591 0
104 590 591 0
c gate 592 -152 591 0
-152 -592 0
591 -592 0
152 -591 592 0
c gate 593 546 592 0
546 -593 0
592 -593 0
-546 -592 593 0
c gate 594 587 593 0
587 -594 0
593 -594 0
-587 -593 594 0
c gate 595 -589 -594 0
-589 -595 0
-594 -595 0
589 594 595 0
c gate 596 -385 -388 0
-385 -596 0
-388 -596 0
385 388 596 0
c gate 597 -358 -360 0
-358 -597 0
-360 -597 0
358 360 597 0
c gate 598 -112 -114 0
-112 -598 0
-114 -598 0
112 114 598 0
c gate 599 -115 -598 0
-115 -599 0
-598 -599 0
115 598 599 0
c gate 600 -375 -378 0
-375 -600 0
-378 -600 0
375 378 600 0
c gate 601 599 -600 0
599 -601 0
-600 -601 0
-599 600 601 0
c gate 602 -599 600 0
-599 -602 0
600 -602 0
599 -600 602 0
c gate 603 -601 -602 0
-601 -603 0
-602 -603 0
601 602 603 0
c gate 604 597 -603 0
597 -604 0
-603 -604 0
-597 603 604 0
c gate 605 -597 603 0
-597 -605 0
603 -605 0
597 -603 605 0
c gate 606 -604 -605 0
-604 -606 0
-605 -606 0
604 605 606 0
c gate 607 -322 -382 0
-322 -607 0
-382 -607 0
322 382 607 0
c gate 608 -122 -124 0
-122 -608 0
-124 -608 0
122 124 608 0
c gate 609 -125 -608 0
-125 -609 0
-608 -609 0
125 608 609 0
c gate 610 -607 609 0
-607 -610 0
609 -610 0
607 -609 610 0
c gate 611 607 -609 0
607 -611 0
-609 -611 0
-607 609 611 0
c gate 612 -610 -611 0
-610 -612 0
-611 -612 0
610 611 612 0
c gate 613 606 612 0
606 -613 0
612 -613 0
-606 -612 613 0
c gate 614 -606 -612 0
-606 -614 0
-612 -614 0
606 612 614 0
c gate 615 -613 -614 0
-613 -615 0
-614 -615 0
613 614 615 0
c gate 616 -596 615 0
-596 -616 0
615 -616 0
596 -615 616 0
c gate 617 -364 -368 0
-364 -617 0
-368 -617 0
364 368 617 0
c gate 618 596 -615 0
596 -618 0
-615 -618 0
-596 615 618 0
c gate 619 -616 -618 0
-616 -619 0
-618 -619 0
616 618 619 0
c gate 620 -617 619 0
-617 -620 0
619 -620 0
617 -619 620 0
c gate 621 -616 -620 0
-616 -621 0
-620 -621 0
616 620 621 0
c gate 622 -601 -605 0
-601 -622 0
-605 -622 0
601 605 622 0
c gate 623 -610 -613 0
-610 -623 0
-613 -623 0
610 613 623 0
c gate 624 -108 -132 0
-108 -624 0
-132 -624 0
108 132 624 0
c gate 625 -133 -624 0
-133 -625 0
-624 -625 0
133 624 625 0
c gate 626 -623 625 0
-623 -626 0
625 -626 0
623 -625 626 0
c gate 627 623 -625 0
623 -627 0
-625 -627 0
-623 625 627 0
c gate 628 -626 -627 0
-626 -628 0
-627 -628 0
626 627 628 0
c gate 629 -622 628 0
-622 -629 0
628 -629 0
622 -628 629 0
c gate 630 622 -628 0
622 -630 0
-628 -630 0
-622 628 630 0
c gate 631 -629 -630 0
-629 -631 0
-630 -631 0
629 630 631 0
c gate 632 -621 631 0
-621 -632 0
631 -632 0
621 -631 632 0
c gate 633 5 20 0
5 -633 0
20 -633 0
-5 -20 633 0
c gate 634 621 -631 0
621 -634 0
-631 -634 0
-621 631 634 0
c gate 635 -632 -634 0
-632 -635 0
-634 -635 0
632 634 635 0
c gate 636 633 635 0
633 -636 0
635 -636 0
-633 -635 636 0
c gate 637 -632 -636 0
-632 -637 0
-636 -637 0
632 636 637 0
c gate 638 6 20 0
6 -638 0
20 -638 0
-6 -20 638 0
c gate 639 -626 -629 0
-626 -639 0
-629 -639 0
626 629 639 0
c gate 640 137 -139 0
137 -640 0
-139 -640 0
-137 139 640 0
c gate 641 -140 -640 0
-140 -641 0
-640 -641 0
140 640 641 0
c gate 642 -639 641 0
-639 -642 0
641 -642 0
639 -641 642 0
c gate 643 639 -641 0
639 -643 0
-641 -643 0
-639 641 643 0
c gate 644 -642 -643 0
-642 -644 0
-643 -644 0
642 643 644 0
c gate 645 638 644 0
638 -645 0
644 -645 0
-638 -644 645 0
c gate 646 -638 -644 0
-638 -646 0
-644 -646 0
638 644 646 0
c gate 647 -645 -646 0
-645 -647 0
-646 -647 0
645 646 647 0
c gate 648 637 -647 0
637 -648 0
-647 -648 0
-637 647 648 0
c gate 649 -391 -394 0
-391 -649 0
-394 -649 0
391 394 649 0
c gate 650 617 -619 0
617 -650 0
-619 -650 0
-617 619 650 0
c gate 651 -620 -650 0
-620 -651 0
-650 -651 0
620 650 651 0
c gate 652 -649 651 0
-649 -652 0
651 -652 0
649 -651 652 0
c gate 653 4 20 0
4 -653 0
20 -653 0
-4 -20 653 0
c gate 654 649 -651 0
649 -654 0
-651 -654 0
-649 651 654 0
c gate 655 -652 -654 0
-652 -655 0
-654 -655 0
652 654 655 0
c gate 656 653 655 0
653 -656 0
655 -656 0
-653 -655 656 0
c gate 657 -652 -656 0
-652 -657 0
-656 -657 0
652 656 657 0
c gate 658 -633 -635 0
-633 -658 0
-635 -658 0
633 635 658 0
c gate 659 -636 -658 0
-636 -659 0
-658 -659 0
636 658 659 0
c gate 660 657 -659 0
657 -660 0
-659 -660 0
-657 659 660 0
c gate 661 -648 -660 0
-648 -661 0
-660 -661 0
648 660 661 0
c gate 662 -657 659 0
-657 -662 0
659 -662 0
657 -659 662 0
c gate 663 -397 -400 0
-397 -663 0
-400 -663 0
397 400 663 0
c gate 664 -653 -655 0
-653 -664 0
-655 -664 0
653 655 664 0
c gate 665 -656 -664 0
-656 -665 0
-664 -665 0
656 664 665 0
c gate 666 -663 665 0
-663 -666 0
665 -666 0
663 -665 666 0
c gate 667 -662 -666 0
-662 -667 0
-666 -667 0
662 666 667 0
c gate 668 661 -667 0
661 -668 0
-667 -668 0
-661 667 668 0
c gate 669 -642 -645 0
-642 -669 0
-645 -669 0
642 645 669 0
c gate 670 -145 -147 0
-145 -670 0
-147 -670 0
145 147 670 0
c gate 671 -148 -670 0
-148 -671 0
-670 -671 0
148 670 671 0
c gate 672 -669 671 0
-669 -672 0
671 -672 0
669 -671 672 0
c gate 673 -637 647 0
-637 -673 0
647 -673 0
637 -647 673 0
c gate 674 -672 -673 0
-672 -674 0
-673 -674 0
672 673 674 0
c gate 675 -668 674 0
-668 -675 0
674 -675 0
668 -674 675 0
c gate 676 663 -665 0
663 -676 0
-665 -676 0
-663 665 676 0
c gate 677 348 -402 0
348 -677 0
-402 -677 0
-348 402 677 0
c gate 678 669 -671 0
669 -678 0
-671 -678 0
-669 671 678 0
c gate 679 -677 -678 0
-677 -679 0
-678 -679 0
677 678 679 0
c gate 680 -676 679 0
-676 -680 0
679 -680 0
676 -679 680 0
c gate 681 661 680 0
661 -681 0
680 -681 0
-661 -680 681 0
c gate 682 675 681 0
675 -682 0
681 -682 0
-675 -681 682 0
c gate 683 -595 682 0
-595 -683 0
682 -683 0
595 -682 683 0
c gate 684 60 -678 0
60 -684 0
-678 -684 0
-60 678 684 0
c gate 685 -675 684 0
-675 -685 0
684 -685 0
675 -684 685 0
c gate 686 -683 -685 0
-683 -686 0
-685 -686 0
683 685 686 0
c gate 687 -154 -686 0
-154 -687 0
-686 -687 0
154 686 687 0
c gate 688 -153 -687 0
-153 -688 0
-687 -688 0
153 687 688 0
c gate 689 -106 -688 0
-106 -689 0
-688 -689 0
106 688 689 0
c gate 690 -105 -689 0
-105 -690 0
-689 -690 0
105 689 690 0
c gate 691 -64 -690 0
-64 -691 0
-690 -691 0
64 690 691 0
c gate 692 -576 -583 0
-576 -692 0
-583 -692 0
576 583 692 0
c gate 693 -691 692 0
-691 -693 0
692 -693 0
691 -692 693 0
c PO
-693 0
